3
15
31
40	32
1	2	12	8	11	8	
2	1	31	3	
3	1	19	2	
4	1	13	3	
5	2	29	3	5	6	
6	2	32	3	8	12	
7	3	20	4	12	4	24	4	
8	2	15	3	23	3	
9	3	14	3	7	15	15	8	
10	3	8	5	28	4	6	14	
11	2	15	3	32	4	
12	2	19	3	26	4	
13	2	28	2	6	14	
14	3	15	4	4	12	15	8	
15	2	26	4	9	6	
